unsat
(define-fun skel ((n90 Bool) (n121 Bool) (n136 Bool) (i20 Bool)) Bool (and (and (and n136 n121) i20) n90))
1.84user 0.00system 0:01.85elapsed 100%CPU (0avgtext+0avgdata 33084maxresident)k
0inputs+8outputs (0major+3026minor)pagefaults 0swaps
